119 48 011 1
1
1045 113 1
935 114 1
863 115 1
748 116 1
863 117 1
831 118 1
751 119 1
933 108 1
794 109 1
892 110 1
820 111 1
923 112 1
696 113 1
1134 114 1
747 115 1
835 116 1
948 117 1
642 118 1
772 119 1
696 108 1
755 109 1
873 110 1
689 111 1
684 112 1
960 113 1
727 114 1
714 115 1
886 116 1
949 117 1
1022 118 1
1010 119 1
1103 108 1
893 109 1
933 110 1
826 111 1
699 112 1
820 113 1
684 114 1
840 115 1
694 116 1
837 117 1
855 118 1
916 119 1
779 108 1
1200 109 1
924 110 1
825 111 1
755 112 1
1
1
1
1
1
1
1
1
1
1
1
1
1
1
1
1
1
1
1
1
1
1
1
1
1
1
1
1
1
1
1
1
1
1
1
1
1
1
1
1
1
1
1
1
1
1
1
1
1
1
1
1
1
1
1
1
1
1
1 9 932 21 695 33 1102 45 778
1 10 793 22 754 34 892 46 1199
1 11 891 23 872 35 932 47 923
1 12 819 24 688 36 825 48 824
1 13 922 25 683 37 698 49 754
1 2 1044 14 695 26 959 38 819
1 3 934 15 1133 27 726 39 683
1 4 862 16 746 28 713 40 839
1 5 747 17 834 29 885 41 693
1 6 862 18 947 30 948 42 836
1 7 830 19 641 31 1021 43 854
1 8 750 20 771 32 1009 44 915
